NAME: random problem
TYPE: MTSP
COMMENT: MTSP problem for MRS UAV summer school
DIMENSION: 20
NUMBER_OF_ROBOTS: 2
START_TARGET_INDEXES: 1, 2
NEIGHBORHOOD_RADIUS: 2
EDGE_WEIGHT_TYPE: EUC_2D
NODE_COORD_SECTION
1 15.0 -21.0
2 -5.0 -25.0
3 -0.8 -19.1
4 11.8 14.1
5 32.7 5.0
6 -19.7 -2.6
7 0.5 -6.1
8 21.8 -19.4
9 -14.2 -16.0
10 -37.0 -1.2
11 -3.1 -10.4
12 35.7 -2.4
13 25.8 8.9
14 6.0 -15.8
15 18.9 2.5
16 -23.3 -21.7
17 -5.8 5.9
18 38.8 -16.3
19 -4.4 -11.0
20 37.6 -11.3
EOF
